1111100 AB
337 367 397 420 442 458 473 488 503 518 534 552 570 588 606 624 640 656 672 688 704 720 736 752 768 784 800 815 831 847 863 879 896 916 937 958 979 1000 1021 1042 1062 1075 1088 1100 1113 1127 1141 1155 1169 1194 1219 1244 1271 1298 1328 1357
1111100 BA
315 347 378 391 408 419 431 446 456 474 481 496 504 512 527 542 557 572 588 605 618 634 651 669 685 701 717 733 749 765 781 797 813 829 845 860 876 892 908 924 941 961 982 1004 1025 1046 1067 1088 1108 1121 1134 1146 1159 1173 1187 1201 1213 1236 1260 1285 1312 1339 1369 1398 293
0000011 AB
340 382 424 469 514 544 574 604 634 664 694 724 754 784 814 844 866 888 911 941 971 1001 1031 1061 1091 1121 1151 1181 1211 1241 1270 1299 1339 1380 1421
0000011 BA
339 380 422 466 511 556 586 616 646 676 706 736 766 796 826 856 886 908 930 953 983 1013 1043 1073 1103 1133 1163 1193 1223 1253 1281 1310 1339 1379 1420 21 298
